p cnf 412 698
46 -39 -12 76 0
46 -39 -12 -76 0
6 5 1 77 0
6 5 1 -77 0
-33 -32 65 78 0
-33 -32 65 -78 0
26 70 -30 79 0
26 70 -30 -79 0
11 37 -5 80 0
11 37 -5 -80 0
74 -71 -52 81 0
74 -71 -52 -81 0
-39 72 -45 82 0
-39 72 -45 -82 0
25 40 11 83 0
25 40 11 -83 0
-30 -47 1 84 0
-30 -47 1 -84 0
32 2 70 85 0
32 2 70 -85 0
-1 -27 22 86 0
-1 -27 22 -86 0
-22 23 10 87 0
-22 23 10 -87 0
-45 -39 57 88 0
-45 -39 57 -88 0
-61 -7 -49 89 0
-61 -7 -49 -89 0
18 -22 -41 90 0
18 -22 -41 -90 0
-38 59 22 91 0
-38 59 22 -91 0
72 -57 -29 92 0
72 -57 -29 -92 0
24 -18 -8 93 0
24 -18 -8 -93 0
-7 -59 -67 94 0
-7 -59 -67 -94 0
-20 -62 -4 95 0
-20 -62 -4 -95 0
55 37 45 96 0
55 37 45 -96 0
7 17 63 97 0
7 17 63 -97 0
3 -46 -53 98 0
3 -46 -53 -98 0
-70 57 34 99 0
-70 57 34 -99 0
-44 -58 -64 100 0
-44 -58 -64 -100 0
34 -23 3 101 0
34 -23 3 -101 0
-31 60 71 102 0
-31 60 71 -102 0
68 54 -9 103 0
68 54 -9 -103 0
-73 -11 18 104 0
-73 -11 18 -104 0
-28 -30 -9 105 0
-28 -30 -9 -105 0
33 -20 -19 106 0
33 -20 -19 -106 0
-44 -74 -47 107 0
-44 -74 -47 -107 0
70 -56 -32 108 0
70 -56 -32 -108 0
63 -57 -70 109 0
63 -57 -70 -109 0
25 -69 -72 110 0
25 -69 -72 -110 0
-29 -26 -14 111 0
-29 -26 -14 -111 0
34 -30 -56 112 0
34 -30 -56 -112 0
58 -63 24 113 0
58 -63 24 -113 0
-74 -53 64 114 0
-74 -53 64 -114 0
36 -8 23 115 0
36 -8 23 -115 0
-27 -70 41 116 0
-27 -70 41 -116 0
23 75 -55 117 0
23 75 -55 -117 0
-46 62 36 118 0
-46 62 36 -118 0
-2 -75 -4 119 0
-2 -75 -4 -119 0
-21 -29 69 120 0
-21 -29 69 -120 0
59 -14 -28 121 0
59 -14 -28 -121 0
49 1 -69 122 0
49 1 -69 -122 0
2 -49 -58 123 0
2 -49 -58 -123 0
-63 45 -57 124 0
-63 45 -57 -124 0
-52 56 -4 125 0
-52 56 -4 -125 0
4 -7 32 126 0
4 -7 32 -126 0
4 -59 19 127 0
4 -59 19 -127 0
-34 36 -73 128 0
-34 36 -73 -128 0
-58 48 38 129 0
-58 48 38 -129 0
-25 64 17 130 0
-25 64 17 -130 0
74 -19 -11 131 0
74 -19 -11 -131 0
-57 52 51 132 0
-57 52 51 -132 0
16 43 73 133 0
16 43 73 -133 0
70 -20 -48 134 0
70 -20 -48 -134 0
-45 17 -44 135 0
-45 17 -44 -135 0
68 -10 -74 136 0
68 -10 -74 -136 0
-71 22 24 137 0
-71 22 24 -137 0
9 -37 74 138 0
9 -37 74 -138 0
-7 44 -55 139 0
-7 44 -55 -139 0
35 45 -64 140 0
35 45 -64 -140 0
-59 24 -10 141 0
-59 24 -10 -141 0
-29 -22 71 142 0
-29 -22 71 -142 0
9 2 54 143 0
9 2 54 -143 0
44 -15 -72 144 0
44 -15 -72 -144 0
-71 29 -42 145 0
-71 29 -42 -145 0
-59 -15 -21 146 0
-59 -15 -21 -146 0
-43 26 -69 147 0
-43 26 -69 -147 0
55 12 -63 148 0
55 12 -63 -148 0
-61 64 11 149 0
-61 64 11 -149 0
55 -8 -33 150 0
55 -8 -33 -150 0
-19 -49 5 151 0
-19 -49 5 -151 0
11 -9 28 152 0
11 -9 28 -152 0
-65 -27 -42 153 0
-65 -27 -42 -153 0
-49 46 -50 154 0
-49 46 -50 -154 0
64 7 -68 155 0
64 7 -68 -155 0
11 46 -33 156 0
11 46 -33 -156 0
-16 20 -7 157 0
-16 20 -7 -157 0
-73 -12 -5 158 0
-73 -12 -5 -158 0
-26 38 -34 159 0
-26 38 -34 -159 0
-61 12 69 160 0
-61 12 69 -160 0
-38 -44 -66 161 0
-38 -44 -66 -161 0
69 -75 -20 162 0
69 -75 -20 -162 0
54 -40 -58 163 0
54 -40 -58 -163 0
31 -6 30 164 0
31 -6 30 -164 0
-40 60 70 165 0
-40 60 70 -165 0
41 -72 27 166 0
41 -72 27 -166 0
-23 -16 -21 167 0
-23 -16 -21 -167 0
30 36 58 168 0
30 36 58 -168 0
64 9 35 169 0
64 9 35 -169 0
35 -1 12 170 0
35 -1 12 -170 0
62 -38 13 171 0
62 -38 13 -171 0
-34 -8 25 172 0
-34 -8 25 -172 0
54 -27 -41 173 0
54 -27 -41 -173 0
66 -49 53 174 0
66 -49 53 -174 0
-51 -27 15 175 0
-51 -27 15 -175 0
4 -42 50 176 0
4 -42 50 -176 0
-25 -13 -43 177 0
-25 -13 -43 -177 0
55 46 -66 178 0
55 46 -66 -178 0
-64 73 24 179 0
-64 73 24 -179 0
-55 -73 42 180 0
-55 -73 42 -180 0
-6 64 -65 181 0
-6 64 -65 -181 0
-15 30 -57 182 0
-15 30 -57 -182 0
22 58 20 183 0
22 58 20 -183 0
62 68 -25 184 0
62 68 -25 -184 0
-26 13 45 185 0
-26 13 45 -185 0
16 -14 18 186 0
16 -14 18 -186 0
48 -8 -51 187 0
48 -8 -51 -187 0
4 11 -37 188 0
4 11 -37 -188 0
-51 10 -33 189 0
-51 10 -33 -189 0
47 -46 4 190 0
47 -46 4 -190 0
-46 -54 24 191 0
-46 -54 24 -191 0
-10 -31 25 192 0
-10 -31 25 -192 0
40 64 -25 193 0
40 64 -25 -193 0
-42 -62 57 194 0
-42 -62 57 -194 0
-64 -33 47 195 0
-64 -33 47 -195 0
3 19 -64 196 0
3 19 -64 -196 0
-43 17 -2 197 0
-43 17 -2 -197 0
6 -42 -50 198 0
6 -42 -50 -198 0
-3 10 48 199 0
-3 10 48 -199 0
61 -72 -66 200 0
61 -72 -66 -200 0
43 67 -58 201 0
43 67 -58 -201 0
3 -61 6 202 0
3 -61 6 -202 0
-66 59 49 203 0
-66 59 49 -203 0
-27 17 26 204 0
-27 17 26 -204 0
32 62 31 205 0
32 62 31 -205 0
-61 63 12 206 0
-61 63 12 -206 0
-33 22 -16 207 0
-33 22 -16 -207 0
45 -18 -51 208 0
45 -18 -51 -208 0
-35 9 6 209 0
-35 9 6 -209 0
-20 -39 69 210 0
-20 -39 69 -210 0
70 47 2 211 0
70 47 2 -211 0
-37 48 -43 212 0
-37 48 -43 -212 0
45 -55 -11 213 0
45 -55 -11 -213 0
10 34 2 214 0
10 34 2 -214 0
23 38 48 215 0
23 38 48 -215 0
30 8 5 216 0
30 8 5 -216 0
51 67 18 217 0
51 67 18 -217 0
72 -58 22 218 0
72 -58 22 -218 0
-27 14 17 219 0
-27 14 17 -219 0
64 71 73 220 0
64 71 73 -220 0
-35 16 -36 221 0
-35 16 -36 -221 0
-41 6 -48 222 0
-41 6 -48 -222 0
69 -29 32 223 0
69 -29 32 -223 0
-30 -71 -26 224 0
-30 -71 -26 -224 0
-72 27 -54 225 0
-72 27 -54 -225 0
-25 -66 3 226 0
-25 -66 3 -226 0
40 21 -37 227 0
40 21 -37 -227 0
61 72 -23 228 0
61 72 -23 -228 0
-29 43 63 229 0
-29 43 63 -229 0
37 10 52 230 0
37 10 52 -230 0
1 27 -74 231 0
1 27 -74 -231 0
-35 -51 74 232 0
-35 -51 74 -232 0
66 -49 74 233 0
66 -49 74 -233 0
-5 -19 -53 234 0
-5 -19 -53 -234 0
-18 -34 1 235 0
-18 -34 1 -235 0
2 -49 -30 236 0
2 -49 -30 -236 0
-54 12 17 237 0
-54 12 17 -237 0
-55 74 -53 238 0
-55 74 -53 -238 0
-64 16 -61 239 0
-64 16 -61 -239 0
33 26 -17 240 0
33 26 -17 -240 0
-36 21 39 241 0
-36 21 39 -241 0
-31 -75 27 242 0
-31 -75 27 -242 0
52 32 -34 243 0
52 32 -34 -243 0
-71 -74 -61 244 0
-71 -74 -61 -244 0
-40 74 -19 245 0
-40 74 -19 -245 0
46 -68 59 246 0
46 -68 59 -246 0
-24 -13 -4 247 0
-24 -13 -4 -247 0
-10 -36 13 248 0
-10 -36 13 -248 0
-14 -60 -22 249 0
-14 -60 -22 -249 0
68 -7 61 250 0
68 -7 61 -250 0
50 -33 -10 251 0
50 -33 -10 -251 0
-37 -64 -4 252 0
-37 -64 -4 -252 0
22 48 24 253 0
22 48 24 -253 0
57 29 -72 254 0
57 29 -72 -254 0
-66 21 44 255 0
-66 21 44 -255 0
69 -7 64 256 0
69 -7 64 -256 0
-69 -1 -18 257 0
-69 -1 -18 -257 0
61 62 -28 258 0
61 62 -28 -258 0
21 3 71 259 0
21 3 71 -259 0
56 -71 44 260 0
56 -71 44 -260 0
-56 -40 -7 261 0
-56 -40 -7 -261 0
72 36 45 262 0
72 36 45 -262 0
70 19 73 263 0
70 19 73 -263 0
-64 -48 21 264 0
-64 -48 21 -264 0
-8 -45 -21 265 0
-8 -45 -21 -265 0
-51 49 -32 266 0
-51 49 -32 -266 0
-27 15 -35 267 0
-27 15 -35 -267 0
7 -23 11 268 0
7 -23 11 -268 0
-22 33 -10 269 0
-22 33 -10 -269 0
67 -24 44 270 0
67 -24 44 -270 0
6 49 12 271 0
6 49 12 -271 0
-36 -57 -43 272 0
-36 -57 -43 -272 0
-62 -59 -19 273 0
-62 -59 -19 -273 0
-35 -9 19 274 0
-35 -9 19 -274 0
43 -42 -59 275 0
43 -42 -59 -275 0
-49 61 -31 276 0
-49 61 -31 -276 0
-14 -58 43 277 0
-14 -58 43 -277 0
-52 39 -4 278 0
-52 39 -4 -278 0
57 -70 -75 279 0
57 -70 -75 -279 0
36 6 -17 280 0
36 6 -17 -280 0
1 -66 57 281 0
1 -66 57 -281 0
-18 -64 -61 282 0
-18 -64 -61 -282 0
4 21 2 283 0
4 21 2 -283 0
-73 -72 -33 284 0
-73 -72 -33 -284 0
-46 -33 2 285 0
-46 -33 2 -285 0
-58 52 -9 286 0
-58 52 -9 -286 0
43 25 48 287 0
43 25 48 -287 0
-67 13 -38 288 0
-67 13 -38 -288 0
-31 17 -51 289 0
-31 17 -51 -289 0
-59 -5 60 290 0
-59 -5 60 -290 0
-28 -32 -12 291 0
-28 -32 -12 -291 0
-34 -64 -44 292 0
-34 -64 -44 -292 0
-53 11 24 293 0
-53 11 24 -293 0
-1 -47 53 294 0
-1 -47 53 -294 0
46 44 30 295 0
46 44 30 -295 0
34 41 -45 296 0
34 41 -45 -296 0
-66 -69 -10 297 0
-66 -69 -10 -297 0
-29 2 20 298 0
-29 2 20 -298 0
-74 -3 75 299 0
-74 -3 75 -299 0
-33 -31 -54 300 0
-33 -31 -54 -300 0
-21 -10 29 301 0
-21 -10 29 -301 0
32 27 41 302 0
32 27 41 -302 0
37 -19 56 303 0
37 -19 56 -303 0
34 -53 3 304 0
34 -53 3 -304 0
-52 -71 -6 305 0
-52 -71 -6 -305 0
-61 50 -22 306 0
-61 50 -22 -306 0
-8 -48 7 307 0
-8 -48 7 -307 0
-10 -17 44 308 0
-10 -17 44 -308 0
-69 10 71 309 0
-69 10 71 -309 0
23 -6 -32 310 0
23 -6 -32 -310 0
-21 31 -46 311 0
-21 31 -46 -311 0
23 -14 35 312 0
23 -14 35 -312 0
54 -72 32 313 0
54 -72 32 -313 0
40 -55 -17 314 0
40 -55 -17 -314 0
72 73 51 315 0
72 73 51 -315 0
-25 46 -51 316 0
-25 46 -51 -316 0
57 -36 -71 317 0
57 -36 -71 -317 0
-32 -45 -54 318 0
-32 -45 -54 -318 0
70 -31 -20 319 0
70 -31 -20 -319 0
57 63 68 320 0
57 63 68 -320 0
53 40 63 321 0
53 40 63 -321 0
11 17 37 322 0
11 17 37 -322 0
-64 -65 -72 323 0
-64 -65 -72 -323 0
7 -47 19 324 0
7 -47 19 -324 0
21 -39 73 325 0
21 -39 73 -325 0
30 49 53 326 0
30 49 53 -326 0
-18 13 -29 327 0
-18 13 -29 -327 0
-7 51 -4 328 0
-7 51 -4 -328 0
55 -74 10 329 0
55 -74 10 -329 0
26 21 16 330 0
26 21 16 -330 0
67 -64 6 331 0
67 -64 6 -331 0
27 3 47 332 0
27 3 47 -332 0
13 29 9 333 0
13 29 9 -333 0
8 -57 36 334 0
8 -57 36 -334 0
-36 -12 -37 335 0
-36 -12 -37 -335 0
5 -41 42 336 0
5 -41 42 -336 0
-28 1 -35 337 0
-28 1 -35 -337 0
-33 20 10 338 0
-33 20 10 -338 0
-3 -44 -68 339 0
-3 -44 -68 -339 0
55 -20 -65 340 0
55 -20 -65 -340 0
68 75 -4 341 0
68 75 -4 -341 0
66 38 -54 342 0
66 38 -54 -342 0
7 70 -6 343 0
7 70 -6 -343 0
29 39 -10 344 0
29 39 -10 -344 0
-75 -55 14 345 0
-75 -55 14 -345 0
27 64 10 346 0
27 64 10 -346 0
-9 -14 57 347 0
-9 -14 57 -347 0
-48 -46 -14 348 0
-48 -46 -14 -348 0
19 16 12 349 0
19 16 12 -349 0
22 36 -68 350 0
22 36 -68 -350 0
45 -52 -54 351 0
45 -52 -54 -351 0
16 -12 -55 352 0
16 -12 -55 -352 0
50 22 -12 353 0
50 22 -12 -353 0
-46 -25 72 354 0
-46 -25 72 -354 0
-21 -22 -2 355 0
-21 -22 -2 -355 0
26 22 -41 356 0
26 22 -41 -356 0
-1 -44 51 357 0
-1 -44 51 -357 0
-54 -21 -47 358 0
-54 -21 -47 -358 0
-51 19 -5 359 0
-51 19 -5 -359 0
-57 37 -13 360 0
-57 37 -13 -360 0
47 -43 5 361 0
47 -43 5 -361 0
51 47 -3 362 0
51 47 -3 -362 0
51 -7 -70 363 0
51 -7 -70 -363 0
4 47 60 364 0
4 47 60 -364 0
74 -75 -39 365 0
74 -75 -39 -365 0
-69 -29 -24 366 0
-69 -29 -24 -366 0
32 -17 -42 367 0
32 -17 -42 -367 0
8 -18 -75 368 0
8 -18 -75 -368 0
-44 -43 28 369 0
-44 -43 28 -369 0
-50 -62 -68 370 0
-50 -62 -68 -370 0
-54 -73 -71 371 0
-54 -73 -71 -371 0
-9 55 32 372 0
-9 55 32 -372 0
-50 40 25 373 0
-50 40 25 -373 0
-19 48 -64 374 0
-19 48 -64 -374 0
-1 -74 37 375 0
-1 -74 37 -375 0
41 38 -4 376 0
41 38 -4 -376 0
-27 -24 -22 377 0
-27 -24 -22 -377 0
7 40 -32 378 0
7 40 -32 -378 0
35 59 41 379 0
35 59 41 -379 0
-7 -6 -53 380 0
-7 -6 -53 -380 0
-39 -28 62 381 0
-39 -28 62 -381 0
26 -66 50 382 0
26 -66 50 -382 0
-15 22 25 383 0
-15 22 25 -383 0
-23 71 19 384 0
-23 71 19 -384 0
-5 8 32 385 0
-5 8 32 -385 0
41 -45 48 386 0
41 -45 48 -386 0
56 70 -7 387 0
56 70 -7 -387 0
-48 -18 -9 388 0
-48 -18 -9 -388 0
-32 -11 -41 389 0
-32 -11 -41 -389 0
2 -4 -49 390 0
2 -4 -49 -390 0
53 -26 -24 391 0
53 -26 -24 -391 0
-42 -34 -63 392 0
-42 -34 -63 -392 0
-35 36 -8 393 0
-35 36 -8 -393 0
-13 -65 7 394 0
-13 -65 7 -394 0
-21 -42 -10 395 0
-21 -42 -10 -395 0
-49 52 -22 396 0
-49 52 -22 -396 0
-66 44 33 397 0
-66 44 33 -397 0
-44 51 57 398 0
-44 51 57 -398 0
-47 32 -4 399 0
-47 32 -4 -399 0
-60 30 10 400 0
-60 30 10 -400 0
401 402 403 404 0
401 402 403 -404 0
401 402 -403 404 0
401 402 -403 -404 0
401 -402 403 404 0
401 -402 403 -404 0
401 -402 -403 404 0
401 -402 -403 -404 0
-401 402 403 404 0
-401 402 403 -404 0
-401 402 -403 404 0
-401 402 -403 -404 0
-401 -402 403 404 0
-401 -402 403 -404 0
-401 -402 -403 404 0
-401 -402 -403 -404 0
405 406 407 408 0
405 406 407 -408 0
405 406 -407 408 0
405 406 -407 -408 0
405 -406 407 408 0
405 -406 407 -408 0
405 -406 -407 408 0
405 -406 -407 -408 0
-405 406 407 408 0
-405 406 407 -408 0
-405 406 -407 408 0
-405 406 -407 -408 0
-405 -406 407 408 0
-405 -406 407 -408 0
-405 -406 -407 408 0
-405 -406 -407 -408 0
409 410 411 412 0
409 410 411 -412 0
409 410 -411 412 0
409 410 -411 -412 0
409 -410 411 412 0
409 -410 411 -412 0
409 -410 -411 412 0
409 -410 -411 -412 0
-409 410 411 412 0
-409 410 411 -412 0
-409 410 -411 412 0
-409 410 -411 -412 0
-409 -410 411 412 0
-409 -410 411 -412 0
-409 -410 -411 412 0
-409 -410 -411 -412 0
